!PBEh-3c opt 
Generated by prepare_file.py
% pal nprocs 16 end
% maxcore 4000
%%scf maxiter 500
     end
% output
    printlevel mini
    print[ P_SCFInfo ] 1
    print[ P_SCFIterInfo ] 1
    print[ P_OrbEn ] 0
    print[ P_Cartesian ] 0
end
% elprop
    Dipole False
end
* xyz 0 1 
 C   -0.00000000   -0.00000000    0.00000000 
 C    1.17100000    0.97500000   -0.22000000 
 C    1.75200000    1.39600000    1.14300000 
 C    0.96800000    0.70100000    2.27100000 
 C    1.92900000    0.33900000    3.41800000 
 H   -0.78500000    0.24400000   -0.65300000 
 H    0.32200000   -0.98100000   -0.19000000 
 H   -0.33500000    0.07300000    0.99300000 
 H    1.39400000   -0.13600000    4.18700000 
 H    0.82800000    1.82500000   -0.73100000 
 H    1.91700000    0.50300000   -0.78700000 
 H    1.67100000    2.43800000    1.25200000 
 H    2.76200000    1.11600000    1.19600000 
 H    0.51900000   -0.17200000    1.90000000 
 H    0.22400000    1.35000000    2.63100000 
 H    2.37500000    1.21300000    3.79200000 
 H    2.67400000   -0.30900000    3.05900000 
*
