!PBEh-3c opt 
Generated by prepare_file.py
% pal nprocs 16 end
% maxcore 4000
%%scf maxiter 500
     end
% output
    printlevel mini
    print[ P_SCFInfo ] 1
    print[ P_SCFIterInfo ] 1
    print[ P_OrbEn ] 0
    print[ P_Cartesian ] 0
end
% elprop
    Dipole False
end
* xyz 0 1 
 C   -0.00000000   -0.00000000    0.00000000 
 C    1.17100000    0.97500000   -0.22000000 
 C    1.75200000    1.39600000    1.14300000 
 C    0.96800000    0.70100000    2.27100000 
 C    1.32300000   -0.79700000    2.29800000 
 H   -0.78500000    0.24400000   -0.65300000 
 H    0.32200000   -0.98100000   -0.19000000 
 H   -0.33500000    0.07300000    0.99300000 
 H    0.78700000   -1.27100000    3.06700000 
 H    0.82800000    1.82500000   -0.73100000 
 H    1.91700000    0.50300000   -0.78700000 
 H    1.67100000    2.43800000    1.25200000 
 H    2.76200000    1.11600000    1.19600000 
 H   -0.06200000    0.81400000    2.10300000 
 H    1.22100000    1.13600000    3.19300000 
 H    2.35300000   -0.91000000    2.47000000 
 H    1.07200000   -1.23300000    1.37600000 
*
