!PBEh-3c opt 
Generated by prepare_file.py
% pal nprocs 16 end
% maxcore 4000
%%scf maxiter 500
     end
% output
    printlevel mini
    print[ P_SCFInfo ] 1
    print[ P_SCFIterInfo ] 1
    print[ P_OrbEn ] 0
    print[ P_Cartesian ] 0
end
% elprop
    Dipole False
end
* xyz 0 1 
 C   -0.00000000   -0.00000000    0.00000000 
 C    1.17100000    0.97500000   -0.22000000 
 C    1.75200000    1.39600000    1.14300000 
 C    2.52100000    0.21300000    1.76000000 
 C    2.45300000   -0.99600000    0.80900000 
 H   -0.78500000    0.24400000   -0.65300000 
 H    0.32200000   -0.98100000   -0.19000000 
 H   -0.33500000    0.07300000    0.99300000 
 H    2.97700000   -1.80300000    1.23000000 
 H    0.82800000    1.82500000   -0.73100000 
 H    1.91700000    0.50300000   -0.78700000 
 H    0.97000000    1.67700000    1.78600000 
 H    2.40500000    2.20700000    1.01100000 
 H    2.09100000   -0.04200000    2.68200000 
 H    3.52500000    0.48700000    1.90500000 
 H    2.88700000   -0.74200000   -0.11400000 
 H    1.45000000   -1.27000000    0.66100000 
*
