!PBEh-3c opt 
Generated by prepare_file.py
% pal nprocs 16 end
% maxcore 4000
%%scf maxiter 500
     end
% output
    printlevel mini
    print[ P_SCFInfo ] 1
    print[ P_SCFIterInfo ] 1
    print[ P_OrbEn ] 0
    print[ P_Cartesian ] 0
end
% elprop
    Dipole False
end
* xyz 0 1 
 C   -0.00000000   -0.00000000    0.00000000 
 C    1.17100000    0.97500000   -0.22000000 
 C    1.75200000    1.39600000    1.14300000 
 C    3.27900000    1.55400000    1.02300000 
 C    3.94900000    1.08300000    2.32700000 
 H   -0.78500000    0.24400000   -0.65300000 
 H    0.32200000   -0.98100000   -0.19000000 
 H   -0.33500000    0.07300000    0.99300000 
 H    4.99000000    1.19200000    2.24500000 
 H    0.82800000    1.82500000   -0.73100000 
 H    1.91700000    0.50300000   -0.78700000 
 H    1.53200000    0.66100000    1.86000000 
 H    1.32900000    2.31000000    1.43800000 
 H    3.51500000    2.56100000    0.85100000 
 H    3.62800000    0.97100000    0.22200000 
 H    3.71600000    0.07300000    2.49700000 
 H    3.59900000    1.66400000    3.13000000 
*
