!PBEh-3c opt 
Generated by prepare_file.py
% pal nprocs 16 end
% maxcore 4000
%%scf maxiter 500
     end
% output
    printlevel mini
    print[ P_SCFInfo ] 1
    print[ P_SCFIterInfo ] 1
    print[ P_OrbEn ] 0
    print[ P_Cartesian ] 0
end
% elprop
    Dipole False
end
* xyz 0 1 
 C   -0.00000000   -0.00000000    0.00000000 
 C    1.17100000    0.97500000   -0.22000000 
 C    1.75200000    1.39600000    1.14300000 
 C    3.27900000    1.55400000    1.02300000 
 C    3.93000000    0.16400000    0.88900000 
 H   -0.78500000    0.24400000   -0.65300000 
 H    0.32200000   -0.98100000   -0.19000000 
 H   -0.33500000    0.07300000    0.99300000 
 H    4.97200000    0.27200000    0.80900000 
 H    0.82800000    1.82500000   -0.73100000 
 H    1.91700000    0.50300000   -0.78700000 
 H    1.53200000    0.66100000    1.86000000 
 H    1.32900000    2.31000000    1.43800000 
 H    3.65100000    2.03400000    1.87800000 
 H    3.50500000    2.12800000    0.17300000 
 H    3.56100000   -0.31500000    0.03100000 
 H    3.70300000   -0.41200000    1.73800000 
*
