%mem=1GB
%nprocshared=4
%chk=pentane_19.chk
# opt=(maxcycles=160) M062X/6-31G(d) emp=GD3 

Generated by prepare_file.py

0 1
 C                 -0.00000000   -0.00000000    0.00000000
 C                  1.17100000    0.97500000   -0.22000000
 C                  1.75200000    1.39600000    1.14300000
 C                  0.76500000    2.34300000    1.85000000
 C                  1.55000000    3.41400000    2.63000000
 H                 -0.78500000    0.24400000   -0.65300000
 H                  0.32200000   -0.98100000   -0.19000000
 H                 -0.33500000    0.07300000    0.99300000
 H                  0.87600000    4.05900000    3.11300000
 H                  0.82800000    1.82500000   -0.73100000
 H                  1.91700000    0.50300000   -0.78700000
 H                  2.66700000    1.89100000    0.99600000
 H                  1.90600000    0.54400000    1.73700000
 H                  0.16700000    1.79400000    2.51500000
 H                  0.15400000    2.80900000    1.13500000
 H                  2.14500000    3.96700000    1.96400000
 H                  2.16200000    2.94900000    3.34500000

