%mem=1GB
%nprocshared=4
%chk=pentane_7.chk
# opt=(maxcycles=160) M062X/6-31G(d) emp=GD3 

Generated by prepare_file.py

0 1
 C                 -0.00000000   -0.00000000    0.00000000
 C                  1.17100000    0.97500000   -0.22000000
 C                  1.75200000    1.39600000    1.14300000
 C                  3.27900000    1.55400000    1.02300000
 C                  3.60300000    2.82000000    0.20900000
 H                 -0.78500000    0.24400000   -0.65300000
 H                  0.32200000   -0.98100000   -0.19000000
 H                 -0.33500000    0.07300000    0.99300000
 H                  4.64400000    2.92600000    0.12600000
 H                  0.82800000    1.82500000   -0.73100000
 H                  1.91700000    0.50300000   -0.78700000
 H                  1.53200000    0.66100000    1.86000000
 H                  1.32900000    2.31000000    1.43800000
 H                  3.68100000    0.71400000    0.53900000
 H                  3.69800000    1.63800000    1.98200000
 H                  3.20400000    3.66100000    0.69500000
 H                  3.18200000    2.73700000   -0.75000000

