%mem=1GB
%nprocshared=4
%chk=pentane_20.chk
# opt=(maxcycles=160) M062X/6-31G(d) emp=GD3 

Generated by prepare_file.py

0 1
 C                 -0.00000000   -0.00000000    0.00000000
 C                  1.17100000    0.97500000   -0.22000000
 C                  1.75200000    1.39600000    1.14300000
 C                  0.96800000    0.70100000    2.27100000
 C                 -0.43200000    1.33200000    2.38800000
 H                 -0.78500000    0.24400000   -0.65300000
 H                  0.32200000   -0.98100000   -0.19000000
 H                 -0.33500000    0.07300000    0.99300000
 H                 -0.96600000    0.85800000    3.15900000
 H                  0.82800000    1.82500000   -0.73100000
 H                  1.91700000    0.50300000   -0.78700000
 H                  1.67100000    2.43800000    1.25200000
 H                  2.76200000    1.11600000    1.19600000
 H                  1.48100000    0.81700000    3.17900000
 H                  0.87200000   -0.32100000    2.05200000
 H                 -0.94800000    1.21200000    1.48100000
 H                 -0.33800000    2.35500000    2.60600000

